[169450, 163700, 161950, 161950, 161950, 161950, 161950, 158550, 158550, 158550, 158550, 158550, 158550, 158550, 158550, 158550, 158550, 158550, 158550, 158550, 158550, 158550, 158550, 158550, 158550, 154900, 154900, 154900, 154900, 154900, 154900, 154900, 154900, 154900, 154900, 154900, 154900, 154900, 154900, 154900, 154900, 154900, 154900, 154900, 154900, 154900, 154900, 154900, 154900, 150500, 150500, 150500, 150500, 150500, 150500, 150500, 150500, 150500, 150500, 150500, 150500, 150500, 150500, 150500, 150050, 150050, 145250, 145250, 145250, 145250, 145250, 145250, 145250, 145250, 145250, 145250, 145250, 139850, 139850, 139850, 139850, 139850, 139850, 139850, 139850, 139850, 139850, 139850, 139850, 138450, 138450, 138450, 138450, 138450, 136300, 136300, 135000, 135000, 135000, 135000, 135000, 135000, 135000, 135000, 135000, 132700, 132700, 132700, 132700, 132700, 132700, 132700, 132700, 132700, 132700, 132700, 132700, 132700, 132700, 132700, 132700, 132700, 132700, 132700, 132700, 132700, 132700, 132700, 132700, 132700, 132700, 132700, 132700, 124300, 124300, 124300, 124300, 124300, 124300, 124300, 124300, 124300, 124300, 124300, 124300, 124300, 124300, 124300, 124300, 124300, 124300, 124300, 124300, 124300, 124300, 124300, 124300, 124300, 124300, 124300, 124300, 124300, 124300, 124300, 124300, 124300, 124300, 124300, 124300, 124300, 124300, 124300, 124300, 124300, 124300, 124300, 124300, 124300, 124300, 124300, 124300, 124300, 124300, 124300, 124300, 124300, 124300, 124300, 124300, 124300, 124300, 124300, 124300, 124300, 124300, 124300, 124300, 124300, 124300, 124300, 124300, 124300, 124300, 124300, 124300, 124300, 124300, 124300, 124300, 124300, 124300, 124300, 124300, 124300, 124300, 124300, 124300, 124300, 124300, 124300, 124300, 124300, 124300, 124300, 124300, 124300, 124300, 124300, 124300, 124300, 124300, 124300, 124300, 124300, 124300, 124300, 124300, 124300, 124300, 124300, 124300, 124300, 124300, 124300, 124300, 124300, 124300, 124300, 124300, 124300, 124300, 124300, 124300, 124300, 124300, 124300, 124300, 124300, 124300, 124300, 124300, 124300, 124300, 124300, 124300, 124300, 124300, 124300, 124300, 124300, 124300, 124300, 124300, 124300, 124300, 124300, 124300, 124300, 124300, 124300, 124300, 124300, 124300, 124300, 124300, 124300, 124300, 124300, 124300, 124300, 124300, 124300, 124300, 124300, 124300, 124300, 124300, 124300, 124300, 124300]